language Essence 1.3

letting blksize_delta be function(1 --> 7, 2 --> 7, 3 --> 7, 4 --> 7, 5 --> 7, 6 --> 7, 7 --> 7, 8 --> 7, 9 --> 7)
letting maxcars be function(1 --> 10, 2 --> 10, 3 --> 10, 4 --> 10, 5 --> 10, 6 --> 10, 7 --> 10, 8 --> 10, 9 --> 10)
letting n_cars be 256
letting n_classes be 65
letting n_options be 9
letting quantity be
        function(1 --> 47, 2 --> 18, 3 --> 4, 4 --> 4, 5 --> 3, 6 --> 3, 7 --> 3, 8 --> 3, 9 --> 3, 10 --> 3, 11 --> 3,
                 12 --> 3, 13 --> 3, 14 --> 3, 15 --> 3, 16 --> 3, 17 --> 3, 18 --> 3, 19 --> 3, 20 --> 3, 21 --> 3,
                 22 --> 3, 23 --> 3, 24 --> 3, 25 --> 3, 26 --> 3, 27 --> 3, 28 --> 3, 29 --> 3, 30 --> 3, 31 --> 3,
                 32 --> 3, 33 --> 3, 34 --> 3, 35 --> 3, 36 --> 3, 37 --> 3, 38 --> 3, 39 --> 3, 40 --> 3, 41 --> 3,
                 42 --> 3, 43 --> 3, 44 --> 3, 45 --> 3, 46 --> 3, 47 --> 3, 48 --> 3, 49 --> 3, 50 --> 3, 51 --> 3,
                 52 --> 3, 53 --> 3, 54 --> 3, 55 --> 3, 56 --> 3, 57 --> 3, 58 --> 3, 59 --> 3, 60 --> 3, 61 --> 3,
                 62 --> 3, 63 --> 3, 64 --> 3, 65 --> 3)
letting usage be
        relation((1, 3), (1, 4), (2, 1), (2, 2), (2, 4), (2, 7), (3, 4), (3, 8), (3, 9), (4, 3), (4, 4), (4, 9), (5, 1),
                 (5, 4), (6, 6), (6, 8), (6, 9), (7, 1), (7, 2), (7, 4), (7, 5), (7, 7), (7, 8), (8, 2), (8, 3), (8, 6),
                 (8, 7), (8, 8), (8, 9), (9, 1), (9, 2), (9, 3), (9, 4), (9, 9), (10, 2), (10, 6), (10, 8), (11, 3),
                 (11, 5), (12, 1), (12, 3), (12, 5), (12, 6), (12, 7), (13, 3), (13, 9), (14, 4), (14, 5), (14, 6),
                 (14, 9), (15, 7), (15, 9), (16, 1), (16, 2), (16, 4), (16, 7), (16, 8), (17, 2), (17, 3), (17, 7),
                 (17, 8), (18, 6), (18, 8), (18, 9), (19, 1), (19, 2), (19, 3), (19, 5), (19, 6), (19, 9), (20, 2),
                 (20, 3), (20, 5), (21, 1), (21, 2), (21, 3), (21, 4), (21, 5), (21, 6), (21, 7), (22, 6), (22, 9),
                 (23, 1), (23, 4), (23, 6), (23, 7), (24, 2), (24, 7), (25, 1), (25, 3), (25, 4), (25, 7), (25, 9),
                 (26, 3), (26, 9), (27, 6), (27, 8), (28, 1), (28, 3), (28, 5), (28, 8), (28, 9), (29, 1), (29, 5),
                 (29, 6), (30, 4), (30, 7), (31, 4), (31, 6), (31, 7), (31, 8), (31, 9), (32, 1), (32, 6), (32, 7),
                 (32, 8), (32, 9), (33, 2), (33, 6), (33, 7), (33, 9), (34, 2), (34, 5), (34, 9), (35, 1), (35, 2),
                 (35, 5), (35, 8), (36, 1), (36, 9), (37, 5), (37, 9), (38, 3), (38, 9), (39, 2), (39, 4), (39, 8),
                 (40, 1), (40, 4), (41, 1), (41, 5), (41, 6), (41, 9), (42, 1), (42, 4), (42, 5), (42, 7), (42, 8),
                 (43, 1), (43, 3), (43, 7), (43, 8), (43, 9), (44, 3), (44, 6), (44, 8), (45, 5), (45, 7), (46, 1),
                 (46, 2), (46, 3), (46, 4), (46, 6), (47, 4), (47, 7), (47, 8), (48, 2), (48, 3), (48, 6), (49, 3),
                 (50, 1), (50, 3), (50, 5), (51, 2), (51, 3), (51, 4), (51, 5), (51, 8), (52, 4), (52, 5), (53, 3),
                 (53, 8), (54, 5), (55, 1), (55, 3), (55, 7), (56, 1), (56, 3), (56, 7), (56, 8), (57, 3), (57, 4),
                 (57, 5), (57, 7), (57, 8), (58, 1), (58, 2), (58, 4), (59, 4), (59, 5), (59, 7), (60, 4), (61, 4),
                 (61, 5), (62, 2), (63, 1), (63, 5), (64, 9), (65, 4), (65, 5), (65, 7))
$ Visualisation for usage
$  1  3
$  1  4
$  2  1
$  2  2
$  2  4
$  2  7
$  3  4
$  3  8
$  3  9
$  4  3
$  4  4
$  4  9
$  5  1
$  5  4
$  6  6
$  6  8
$  6  9
$  7  1
$  7  2
$  7  4
$  7  5
$  7  7
$  7  8
$  8  2
$  8  3
$  8  6
$  8  7
$  8  8
$  8  9
$  9  1
$  9  2
$  9  3
$  9  4
$  9  9
$ 10  2
$ 10  6
$ 10  8
$ 11  3
$ 11  5
$ 12  1
$ 12  3
$ 12  5
$ 12  6
$ 12  7
$ 13  3
$ 13  9
$ 14  4
$ 14  5
$ 14  6
$ 14  9
$ 15  7
$ 15  9
$ 16  1
$ 16  2
$ 16  4
$ 16  7
$ 16  8
$ 17  2
$ 17  3
$ 17  7
$ 17  8
$ 18  6
$ 18  8
$ 18  9
$ 19  1
$ 19  2
$ 19  3
$ 19  5
$ 19  6
$ 19  9
$ 20  2
$ 20  3
$ 20  5
$ 21  1
$ 21  2
$ 21  3
$ 21  4
$ 21  5
$ 21  6
$ 21  7
$ 22  6
$ 22  9
$ 23  1
$ 23  4
$ 23  6
$ 23  7
$ 24  2
$ 24  7
$ 25  1
$ 25  3
$ 25  4
$ 25  7
$ 25  9
$ 26  3
$ 26  9
$ 27  6
$ 27  8
$ 28  1
$ 28  3
$ 28  5
$ 28  8
$ 28  9
$ 29  1
$ 29  5
$ 29  6
$ 30  4
$ 30  7
$ 31  4
$ 31  6
$ 31  7
$ 31  8
$ 31  9
$ 32  1
$ 32  6
$ 32  7
$ 32  8
$ 32  9
$ 33  2
$ 33  6
$ 33  7
$ 33  9
$ 34  2
$ 34  5
$ 34  9
$ 35  1
$ 35  2
$ 35  5
$ 35  8
$ 36  1
$ 36  9
$ 37  5
$ 37  9
$ 38  3
$ 38  9
$ 39  2
$ 39  4
$ 39  8
$ 40  1
$ 40  4
$ 41  1
$ 41  5
$ 41  6
$ 41  9
$ 42  1
$ 42  4
$ 42  5
$ 42  7
$ 42  8
$ 43  1
$ 43  3
$ 43  7
$ 43  8
$ 43  9
$ 44  3
$ 44  6
$ 44  8
$ 45  5
$ 45  7
$ 46  1
$ 46  2
$ 46  3
$ 46  4
$ 46  6
$ 47  4
$ 47  7
$ 47  8
$ 48  2
$ 48  3
$ 48  6
$ 49  3
$ 50  1
$ 50  3
$ 50  5
$ 51  2
$ 51  3
$ 51  4
$ 51  5
$ 51  8
$ 52  4
$ 52  5
$ 53  3
$ 53  8
$ 54  5
$ 55  1
$ 55  3
$ 55  7
$ 56  1
$ 56  3
$ 56  7
$ 56  8
$ 57  3
$ 57  4
$ 57  5
$ 57  7
$ 57  8
$ 58  1
$ 58  2
$ 58  4
$ 59  4
$ 59  5
$ 59  7
$ 60  4
$ 61  4
$ 61  5
$ 62  2
$ 63  1
$ 63  5
$ 64  9
$ 65  4
$ 65  5
$ 65  7

